p tw 130 300
0 1
0 2
0 11
0 20
1 2
2 38
2 47
2 64
2 65
2 13
2 27
2 97
2 98
2 56
2 99
2 60
2 100
2 62
2 95
2 81
2 102
2 120
2 122
3 4
3 5
4 5
4 48
4 106
5 12
5 13
5 35
5 36
5 51
5 52
5 53
5 54
5 42
5 94
5 84
5 86
5 89
5 103
5 82
5 117
5 14
5 115
5 97
5 125
5 96
5 127
6 7
6 8
6 16
6 106
7 8
7 32
7 108
8 37
8 38
8 55
8 56
8 60
8 61
8 67
8 68
8 53
8 73
8 72
8 83
8 112
8 113
8 69
8 115
8 117
8 118
8 34
8 76
9 10
9 11
9 32
9 84
10 11
11 20
11 21
11 22
11 18
11 44
11 49
11 76
11 39
11 99
11 15
11 121
12 13
12 23
12 32
13 27
14 15
14 16
14 115
15 16
15 121
16 23
16 24
16 30
16 31
16 71
16 72
16 52
16 77
16 20
16 78
16 22
16 82
16 79
16 91
16 17
16 95
16 103
16 104
16 106
16 50
16 129
17 18
17 19
17 95
18 19
18 44
19 25
19 26
19 39
19 40
19 74
19 75
19 86
19 87
19 80
19 122
19 41
19 126
20 78
21 22
21 32
21 124
22 82
23 24
23 32
25 26
25 28
25 81
26 48
26 59
27 28
27 29
28 29
28 45
28 46
28 62
28 63
28 81
28 75
28 83
28 31
28 85
28 93
28 94
28 37
28 51
28 87
28 101
28 57
28 114
28 113
28 116
30 31
30 32
30 109
31 85
32 33
32 34
32 57
32 58
32 66
32 67
32 36
32 80
32 84
32 88
32 89
32 108
32 109
32 102
32 123
32 124
33 34
34 76
35 36
36 80
37 38
37 51
38 47
39 40
39 99
40 43
40 105
41 42
41 43
41 126
42 43
42 94
43 69
43 70
43 90
43 91
43 66
43 92
43 105
43 74
43 107
43 110
43 111
43 46
43 78
43 119
43 120
43 65
43 109
45 46
46 78
48 49
48 50
48 59
48 54
48 79
48 92
48 96
48 106
48 88
48 111
48 100
48 114
48 126
48 128
48 116
48 125
49 50
49 76
50 129
51 52
52 77
53 54
53 73
54 79
55 56
56 99
57 58
57 114
60 61
60 100
62 63
62 95
64 65
65 109
66 67
66 92
67 68
69 70
69 115
71 72
72 83
74 75
74 107
75 83
79 91
80 122
81 102
82 117
84 86
86 87
87 101
88 89
88 111
89 103
90 91
92 96
93 94
96 127
97 98
97 125
100 114
102 123
103 104
110 111
112 113
113 116
116 125
117 118
119 120
120 122
126 128
